p cnf 92 96
-1 9 28 78 -79 -80 -81 -82 -89 0 
-2 78 -79 -80 -81 -82 -89 0 
-3 6 60 -4 11 16 21 51 75 79 -80 -81 -82 -89 0 
-3 6 60 -5 79 -80 -81 -82 -89 0 
-6 3 60 80 -79 -81 -82 -89 0 
-7 13 15 18 22 26 27 63 76 79 -80 -81 -82 -89 0 
-8 78 -79 -80 -81 -82 -89 0 
-4 11 16 21 51 75 -9 1 28 79 -80 -81 -82 -89 0 
-10 41 43 -11 4 16 21 51 75 79 -80 -81 -82 -89 0 
-12 79 -80 -81 -82 -89 0 
-13 7 15 18 22 26 27 63 76 79 -80 -81 -82 -89 0 
-14 29 -15 7 13 18 22 26 27 63 76 78 -79 -80 -81 -82 -89 0 
-11 4 16 21 51 75 79 -80 -81 -82 -89 0 
-16 4 11 21 51 75 81 -79 -80 -82 -89 0 
-17 19 23 30 54 58 65 70 82 -79 -80 -81 -89 0 
-18 7 13 15 22 26 27 63 76 82 -79 -80 -81 -89 0 
-19 17 23 30 54 58 65 70 81 -79 -80 -82 -89 0 
-20 24 25 32 67 69 -16 4 11 21 51 75 81 -79 -80 -82 -89 0 
-3 6 60 -21 4 11 16 51 75 82 -79 -80 -81 -89 0 
-3 6 60 -22 7 13 15 18 26 27 63 76 82 -79 -80 -81 -89 0 
-3 6 60 -23 17 19 30 54 58 65 70 82 -79 -80 -81 -89 0 
-24 20 25 32 67 69 78 -79 -80 -81 -82 -89 0 
-25 20 24 32 67 69 78 -79 -80 -81 -82 -89 0 
-26 7 13 15 18 22 27 63 76 78 -79 -80 -81 -82 -89 0 
-27 7 13 15 18 22 26 63 76 78 -79 -80 -81 -82 -89 0 
-28 1 9 78 -79 -80 -81 -82 -89 0 
-29 14 -30 17 19 23 54 58 65 70 79 -80 -81 -82 -89 0 
-14 29 78 -79 -80 -81 -82 -89 0 
-10 41 43 -29 14 79 -80 -81 -82 -89 0 
-14 29 -31 78 -79 -80 -81 -82 -89 0 
-32 20 24 25 67 69 78 -79 -80 -81 -82 -89 0 
-29 14 79 -80 -81 -82 -89 0 
-33 78 -79 -80 -81 -82 -89 0 
-34 36 37 38 39 62 74 79 -80 -81 -82 -89 0 
-35 49 52 79 -80 -81 -82 -89 0 
-36 34 37 38 39 62 74 79 -80 -81 -82 -89 0 
-37 34 36 38 39 62 74 79 -80 -81 -82 -89 0 
-38 34 36 37 39 62 74 79 -80 -81 -82 -89 0 
-39 34 36 37 38 62 74 79 -80 -81 -82 -89 0 
-40 57 78 -79 -80 -81 -82 -89 0 
-41 10 43 78 -79 -80 -81 -82 -89 0 
-42 78 -79 -80 -81 -82 -89 0 
-28 1 9 83 -79 -80 -81 -82 -89 0 
-43 10 41 84 -3 -6 -60 -79 -80 -81 -82 -89 0 
-44 45 46 47 48 85 -79 -80 -81 -82 -89 0 
-44 45 46 47 48 86 -79 -80 -81 -82 -89 0 
-25 20 24 32 67 69 87 -79 -80 -81 -82 -89 -40 -57 0 
-28 1 9 88 -79 -80 -81 -82 -89 0 
-45 44 46 47 48 89 -79 -80 -81 -82 0 
-46 44 45 47 48 89 -79 -80 -81 -82 0 
-47 44 45 46 48 89 -79 -80 -81 -82 0 
-29 14 -9 1 28 79 -80 -81 -82 -89 0 
-48 44 45 46 47 78 -79 -80 -81 -82 -89 0 
-3 6 60 -9 1 28 79 -80 -81 -82 -89 0 
-9 1 28 -49 35 52 79 -80 -81 -82 -89 0 
-50 59 -51 4 11 16 21 75 79 -80 -81 -82 -89 0 
-3 6 60 -52 35 49 79 -80 -81 -82 -89 0 
-3 6 60 -51 4 11 16 21 75 79 -80 -81 -82 -89 0 
-53 78 -79 -80 -81 -82 -89 0 
-54 17 19 23 30 58 65 70 79 -80 -81 -82 -89 0 
-55 78 -79 -80 -81 -82 -89 0 
-56 61 90 -79 -80 -81 -82 -89 0 
-57 40 -58 17 19 23 30 54 65 70 90 -79 -80 -81 -82 -89 0 
-59 50 -60 3 6 91 -79 -80 -81 -82 -89 0 
-61 56 92 -79 -80 -81 -82 -89 0 
-61 56 85 -79 -80 -81 -82 -89 0 
-10 41 43 -62 34 36 37 38 39 74 79 -80 -81 -82 -89 0 
-57 40 -7 13 15 18 22 26 27 63 76 79 -80 -81 -82 -89 0 
-3 6 60 -54 17 19 23 30 58 65 70 79 -80 -81 -82 -89 0 
-3 6 60 -63 7 13 15 18 22 26 27 76 79 -80 -81 -82 -89 0 
-50 59 -11 4 16 21 51 75 79 -80 -81 -82 -89 0 
-42 -64 78 -79 -80 -81 -82 -89 0 
-31 -2 78 -79 -80 -81 -82 -89 0 
-12 -29 14 79 -80 -81 -82 -89 0 
-31 -28 1 9 78 -79 -80 -81 -82 -89 0 
-65 17 19 23 30 54 58 70 78 -79 -80 -81 -82 -89 0 
-57 40 -63 7 13 15 18 22 26 27 76 -66 79 -80 -81 -82 -89 0 
-67 20 24 25 32 69 -10 41 43 -66 79 -80 -81 -82 -89 0 
-51 4 11 16 21 75 -66 79 -80 -81 -82 -89 0 
-57 40 -63 7 13 15 18 22 26 27 76 -68 79 -80 -81 -82 -89 0 
-67 20 24 25 32 69 -10 41 43 -68 79 -80 -81 -82 -89 0 
-51 4 11 16 21 75 -68 79 -80 -81 -82 -89 0 
-67 20 24 25 32 69 -68 79 -80 -81 -82 -89 0 
-67 20 24 25 32 69 79 -80 -81 -82 -89 0 
-69 20 24 25 32 67 78 -79 -80 -81 -82 -89 0 
-64 78 -79 -80 -81 -82 -89 0 
-12 -70 17 19 23 30 54 58 65 79 -80 -81 -82 -89 0 
-63 7 13 15 18 22 26 27 76 -12 79 -80 -81 -82 -89 0 
-71 -72 78 -79 -80 -81 -82 -89 0 
-43 10 41 78 -79 -80 -81 -82 -89 0 
-73 78 -79 -80 -81 -82 -89 0 
-74 34 36 37 38 39 62 79 -80 -81 -82 -89 0 
-75 4 11 16 21 51 79 -80 -81 -82 -89 0 
-76 7 13 15 18 22 26 27 63 79 -80 -81 -82 -89 0 
-77 78 -79 -80 -81 -82 -89 0 
-29 14 -10 41 43 79 -80 -81 -82 -89 0 
